p cnf 19 11
e 1 2 0
a 3 0
e 4 0
a 5 6 0
e 7 0
a 8 9 0
e 10 11 0
a 12 13 0
e 14 15 0
a 16 17 18 0
e 19 0
5 -9 14 -16 0
-17 -2 -8 16 -9 0
-11 5 10 -8 16 0
-3 17 6 -12 -14 0
2 9 12 -8 0
-1 19 -10 8 17 0
-14 7 -4 -6 0
1 14 15 -17 0
-13 -12 -15 0
5 19 -1 18 0
-11 -17 12 0
